sat
(:max-memory         18.15
 :memory             18.15
 :nlsat-propagations 10
 :nlsat-stages       4
 :num-allocs         27402
 :rlimit-count       7729
 :time               0.00
 :total-time         0.02)
